%%% static parameters %%%
timespan = 1;
initial_fruit_bushes = [40];
initial_foragers = [40];
ticks_to_flee = [100];
bush_growth_chance = [10];
rate_of_mutation = [5.0];
%%% dynamic parameters %%%
mean_strength_th = 0.7613006972581474;
mean_strength_w = 99;
mean_speed_th = 0.6359236296364603;
mean_speed_w = 100;
mean_intelligence_th = 0.2954730135422642;
mean_intelligence_w = 74;
murder_rate_th = 0.8061413906808281;
murder_rate_w = 4;
age_death_rate_th = 0.18072770406064642;
age_death_rate_w = 63;
starvation_rate_th = 0.04349307298285365;
starvation_rate_w = 72;
mean_reactive_aggression_th = 0.9332383406013846;
mean_reactive_aggression_w = 89;
mean_proactive_aggression_th = 0.5081437452099934;
mean_proactive_aggression_w = 87;
average_population_th = 364;
average_population_w = 93;
